* ENCODING=ISO-8859-1
NAME          CPLEX
ROWS
 N  obj1    
 G  c1      
 G  c2      
 G  c3      
 G  c4      
 G  c5      
 G  c6      
 G  c7      
 G  c8      
 G  c9      
 G  c10     
 G  c11     
 G  c12     
 G  c13     
 G  c14     
 G  c15     
 G  c16     
 G  c17     
 G  c18     
 G  c19     
 G  c20     
 G  c21     
 G  c22     
 G  c23     
 G  c24     
 G  c25     
 G  c26     
 G  c27     
 G  c28     
 G  c29     
 G  c30     
 G  c31     
 G  c32     
 G  c33     
 G  c34     
 G  c35     
 G  c36     
 G  c37     
 G  c38     
 G  c39     
 G  c40     
 G  c41     
 G  c42     
 G  c43     
 G  c44     
 G  c45     
 G  c46     
 G  c47     
 G  c48     
 G  c49     
 G  c50     
 G  c51     
 G  c52     
 G  c53     
 G  c54     
 G  c55     
 G  c56     
 G  c57     
 G  c58     
 G  c59     
 G  c60     
COLUMNS
    MARK0000  'MARKER'                 'INTORG'
    x1        obj1                            1
    x1        c3                            502
    x1        c7                            167
    x1        c12                           531
    x1        c14                           249
    x1        c15                           400
    x1        c17                           343
    x1        c33                           807
    x1        c47                           203
    x1        c51                           783
    x1        c53                           867
    x1        c54                           874
    x1        c59                           877
    x2        obj1                            1
    x2        c21                           741
    x2        c31                           738
    x2        c53                           396
    x2        c55                           348
    x3        obj1                            1
    x3        c3                            592
    x3        c6                            464
    x3        c21                           938
    x3        c34                           306
    x3        c37                           447
    x3        c39                           569
    x3        c56                           269
    x3        c58                           995
    x4        obj1                            1
    x4        c11                           762
    x4        c23                           170
    x4        c32                           833
    x4        c36                           681
    x4        c40                           454
    x4        c44                           322
    x5        obj1                            1
    x5        c17                           125
    x5        c25                           277
    x5        c34                           610
    x5        c56                           582
    x6        obj1                            1
    x6        c9                            972
    x6        c10                           675
    x6        c15                           450
    x6        c39                           324
    x6        c41                           208
    x7        obj1                            1
    x7        c8                            585
    x7        c23                           807
    x7        c37                           991
    x7        c38                           176
    x7        c40                           867
    x7        c55                           263
    x7        c60                           823
    x8        obj1                            1
    x8        c28                           119
    x8        c31                           966
    x8        c35                           471
    x8        c39                           900
    x8        c40                           636
    x8        c47                           484
    x8        c57                           668
    x9        obj1                            1
    x9        c10                           792
    x9        c36                           929
    x9        c58                           765
    x10       obj1                            1
    x10       c9                            449
    x10       c16                           464
    x10       c44                           729
    x11       obj1                            1
    x11       c25                           460
    x11       c30                           128
    x11       c44                           310
    x12       obj1                            1
    x12       c4                            832
    x12       c29                           210
    x12       c43                           853
    x13       obj1                            1
    x13       c14                           383
    x13       c17                           405
    x13       c26                           306
    x13       c31                           876
    x13       c37                           303
    x13       c42                           399
    x14       obj1                            1
    x14       c4                            700
    x14       c15                           281
    x14       c31                           825
    x14       c35                           798
    x14       c37                           577
    x14       c56                           141
    x15       obj1                            1
    x15       c12                           548
    x15       c16                           674
    x15       c18                           691
    x15       c22                           141
    x15       c39                           219
    x15       c41                           186
    x15       c46                           347
    x16       obj1                            1
    x16       c3                            183
    x16       c14                           689
    x16       c15                           539
    x16       c28                           544
    x16       c53                           491
    x17       obj1                            1
    x17       c10                           835
    x17       c14                           931
    x17       c18                           885
    x17       c20                           252
    x17       c46                           813
    x17       c53                           859
    x18       obj1                            1
    x18       c15                           761
    x18       c31                           845
    x18       c50                           363
    x19       obj1                            1
    x19       c4                            198
    x19       c7                            490
    x19       c52                           856
    x19       c53                           183
    x20       obj1                            1
    x20       c3                            702
    x20       c5                            827
    x20       c20                           767
    x20       c60                           638
    x21       obj1                            1
    x21       c9                            622
    x21       c29                           262
    x21       c34                           488
    x21       c35                           266
    x21       c38                           443
    x21       c48                           588
    x21       c52                           987
    x21       c57                           758
    x22       obj1                            1
    x22       c6                            601
    x22       c14                           323
    x22       c17                           645
    x22       c28                           188
    x22       c30                           372
    x22       c41                           513
    x22       c43                           815
    x22       c47                           846
    x22       c50                           292
    x22       c55                           704
    x23       obj1                            1
    x23       c1                            887
    x23       c23                           323
    x23       c31                           662
    x23       c36                           675
    x24       obj1                            1
    x24       c13                           220
    x24       c28                           427
    x24       c39                           422
    x24       c49                           968
    x24       c52                           492
    x25       obj1                            1
    x25       c6                            915
    x25       c8                            690
    x25       c10                           849
    x25       c12                           358
    x25       c13                           198
    x26       obj1                            1
    x26       c11                           703
    x26       c13                           736
    x26       c14                           132
    x26       c21                           585
    x26       c32                           267
    x26       c48                           359
    x26       c52                           108
    x26       c58                           296
    x27       obj1                            1
    x27       c2                            439
    x27       c3                            721
    x27       c8                            150
    x27       c30                           267
    x27       c31                           732
    x27       c35                           462
    x27       c37                           244
    x27       c38                           218
    x27       c47                           996
    x27       c49                           353
    x28       obj1                            1
    x28       c19                           465
    x28       c21                           667
    x28       c35                           465
    x28       c48                           751
    x29       obj1                            1
    x29       c4                            855
    x29       c30                           681
    x29       c43                           939
    x29       c49                           328
    x30       obj1                            1
    x30       c10                           589
    x30       c12                           477
    x31       obj1                            1
    x31       c22                           430
    x31       c34                           980
    x31       c45                           475
    x31       c47                           254
    x31       c48                           985
    x31       c53                           520
    x32       obj1                            1
    x32       c26                           679
    x32       c28                           816
    x32       c47                           657
    x32       c50                           596
    x33       obj1                            1
    x33       c11                           992
    x33       c23                           179
    x33       c38                           635
    x33       c44                           818
    x33       c55                           873
    x34       obj1                            1
    x34       c3                            915
    x34       c7                            177
    x34       c15                           863
    x34       c24                           306
    x34       c32                           763
    x34       c42                           258
    x34       c45                           504
    x34       c52                           731
    x34       c53                           263
    x34       c58                           318
    x35       obj1                            1
    x35       c6                            828
    x35       c17                           859
    x35       c20                           500
    x35       c25                           599
    x35       c28                           913
    x35       c29                           138
    x35       c33                           524
    x35       c53                           594
    x35       c60                           272
    x36       obj1                            1
    x36       c3                            797
    x36       c5                            959
    x36       c6                            483
    x36       c20                           772
    x36       c21                           636
    x36       c24                           858
    x36       c39                           253
    x36       c40                           531
    x37       obj1                            1
    x37       c8                            160
    x37       c16                           820
    x37       c18                           335
    x37       c46                           628
    x37       c48                           943
    x37       c58                           962
    x38       obj1                            1
    x38       c4                            281
    x38       c15                           736
    x38       c22                           242
    x38       c27                           725
    x38       c28                           166
    x38       c30                           922
    x38       c31                           797
    x38       c32                           909
    x38       c39                           989
    x38       c43                           408
    x38       c45                           907
    x39       obj1                            1
    x39       c9                            451
    x39       c13                           460
    x39       c22                           450
    x39       c23                           670
    x39       c30                           755
    x40       obj1                            1
    x40       c20                           992
    x40       c47                           383
    x40       c54                           273
    x41       obj1                            1
    x41       c2                            423
    x41       c9                            673
    x41       c26                           372
    x41       c55                           821
    x42       obj1                            1
    x42       c10                           787
    x42       c17                           994
    x42       c36                           893
    x42       c38                           917
    x42       c40                           901
    x42       c54                           545
    x42       c57                           861
    x42       c58                           535
    x43       obj1                            1
    x43       c3                            198
    x43       c10                           140
    x43       c11                           273
    x43       c19                           345
    x43       c20                           839
    x43       c30                           923
    x43       c34                           100
    x43       c41                           187
    x44       obj1                            1
    x44       c13                           368
    x44       c49                           177
    x45       obj1                            1
    x45       c4                            234
    x45       c8                            598
    x45       c35                           153
    x45       c43                           137
    x45       c46                           323
    x45       c58                           415
    x46       obj1                            1
    x46       c7                            714
    x46       c21                           553
    x46       c28                           343
    x46       c43                           808
    x46       c45                           746
    x46       c55                           733
    x46       c57                           250
    x46       c60                           662
    x47       obj1                            1
    x47       c9                            849
    x47       c20                           581
    x47       c33                           966
    x47       c55                           124
    x47       c58                           516
    x47       c59                           544
    x48       obj1                            1
    x48       c1                            548
    x48       c3                            282
    x48       c31                           919
    x48       c52                           794
    x49       obj1                            1
    x49       c1                            868
    x49       c13                           651
    x49       c17                           652
    x49       c29                           675
    x49       c33                           668
    x49       c40                           927
    x49       c44                           933
    x49       c48                           179
    x49       c51                           744
    x49       c59                           407
    x50       obj1                            1
    x50       c14                           636
    x50       c16                           251
    x50       c18                           317
    x50       c36                           305
    x51       obj1                            1
    x51       c5                            180
    x51       c24                           113
    x51       c29                           581
    x51       c36                           535
    x51       c47                           461
    x51       c51                           608
    x52       obj1                            1
    x52       c10                           352
    x52       c28                           934
    x52       c41                           476
    x52       c44                           553
    x52       c45                           899
    x52       c56                           576
    x53       obj1                            1
    x53       c1                            340
    x53       c9                            594
    x53       c21                           528
    x53       c23                           326
    x53       c26                           925
    x53       c39                           169
    x53       c56                           585
    x54       obj1                            1
    x54       c1                            782
    x54       c9                            550
    x54       c27                           585
    x54       c34                           197
    x54       c53                           192
    x54       c55                           446
    x55       obj1                            1
    x55       c10                           270
    x55       c25                           431
    x55       c27                           739
    x55       c38                           596
    x55       c42                           746
    x55       c52                           882
    x56       obj1                            1
    x56       c1                            859
    x56       c4                            788
    x56       c12                           478
    x56       c20                           711
    x56       c24                           420
    x56       c33                           598
    x56       c42                           766
    x57       obj1                            1
    x57       c1                            437
    x57       c7                            150
    x57       c34                           759
    x57       c55                           562
    x57       c56                           934
    x57       c60                           344
    x58       obj1                            1
    x58       c6                            714
    x58       c18                           388
    x58       c37                           998
    x58       c39                           175
    x58       c42                           438
    x58       c57                           376
    x59       obj1                            1
    x59       c1                            285
    x59       c2                            132
    x59       c13                           300
    x59       c26                           486
    x59       c34                           163
    x59       c36                           319
    x59       c38                           608
    x59       c42                           700
    x59       c58                           324
    x60       obj1                            1
    x60       c7                            519
    x60       c9                            821
    x60       c13                           519
    x60       c17                           652
    x60       c19                           412
    x60       c47                           940
    x60       c49                           124
    MARK0001  'MARKER'                 'INTEND'
RHS
    rhs       c1                           2503
    rhs       c2                            497
    rhs       c3                           2446
    rhs       c4                           1944
    rhs       c5                            983
    rhs       c6                           2003
    rhs       c7                           1109
    rhs       c8                           1092
    rhs       c9                           2991
    rhs       c10                          2645
    rhs       c11                          1365
    rhs       c12                          1196
    rhs       c13                          1726
    rhs       c14                          1672
    rhs       c15                          2015
    rhs       c16                          1105
    rhs       c17                          2338
    rhs       c18                          1308
    rhs       c19                           611
    rhs       c20                          2707
    rhs       c21                          2324
    rhs       c22                           632
    rhs       c23                          1238
    rhs       c24                           849
    rhs       c25                           884
    rhs       c26                          1384
    rhs       c27                          1025
    rhs       c28                          2225
    rhs       c29                           933
    rhs       c30                          2024
    rhs       c31                          3680
    rhs       c32                          1386
    rhs       c33                          1782
    rhs       c34                          1802
    rhs       c35                          1308
    rhs       c36                          2169
    rhs       c37                          1780
    rhs       c38                          1797
    rhs       c39                          2010
    rhs       c40                          2158
    rhs       c41                           785
    rhs       c42                          1654
    rhs       c43                          1980
    rhs       c44                          1833
    rhs       c45                          1766
    rhs       c46                          1056
    rhs       c47                          2612
    rhs       c48                          1903
    rhs       c49                           975
    rhs       c50                           626
    rhs       c51                          1068
    rhs       c52                          2425
    rhs       c53                          2183
    rhs       c54                           846
    rhs       c55                          2437
    rhs       c56                          1544
    rhs       c57                          1457
    rhs       c58                          2563
    rhs       c59                           914
    rhs       c60                          1370
BOUNDS
 LI bnd       x1        0
 LI bnd       x2        0
 LI bnd       x3        0
 LI bnd       x4        0
 LI bnd       x5        0
 LI bnd       x6        0
 LI bnd       x7        0
 LI bnd       x8        0
 LI bnd       x9        0
 LI bnd       x10       0
 LI bnd       x11       0
 LI bnd       x12       0
 LI bnd       x13       0
 LI bnd       x14       0
 LI bnd       x15       0
 LI bnd       x16       0
 LI bnd       x17       0
 LI bnd       x18       0
 LI bnd       x19       0
 LI bnd       x20       0
 LI bnd       x21       0
 LI bnd       x22       0
 LI bnd       x23       0
 LI bnd       x24       0
 LI bnd       x25       0
 LI bnd       x26       0
 LI bnd       x27       0
 LI bnd       x28       0
 LI bnd       x29       0
 LI bnd       x30       0
 LI bnd       x31       0
 LI bnd       x32       0
 LI bnd       x33       0
 LI bnd       x34       0
 LI bnd       x35       0
 LI bnd       x36       0
 LI bnd       x37       0
 LI bnd       x38       0
 LI bnd       x39       0
 LI bnd       x40       0
 LI bnd       x41       0
 LI bnd       x42       0
 LI bnd       x43       0
 LI bnd       x44       0
 LI bnd       x45       0
 LI bnd       x46       0
 LI bnd       x47       0
 LI bnd       x48       0
 LI bnd       x49       0
 LI bnd       x50       0
 LI bnd       x51       0
 LI bnd       x52       0
 LI bnd       x53       0
 LI bnd       x54       0
 LI bnd       x55       0
 LI bnd       x56       0
 LI bnd       x57       0
 LI bnd       x58       0
 LI bnd       x59       0
 LI bnd       x60       0
ENDATA
